sets/C/cp-n20-k3.vrp
NAME : (null)
COMMENT : (null)
TYPE : CVRP
DIMENSION : 20
EDGE_WEIGHT_TYPE : EUC_2D
CAPACITY : 83
NODE_COORD_SECTION
 1   4   6
 2   3  19
 3  12  17
 4   8   2
 5  11   7
 6   1   3
 7  11  19
 8   9  17
 9  17   9
10   0   6
11   6   4
12   2   7
13  15  12
14   3   6
15   3  10
16   6  16
17  12   1
18   0   7
19  19  14
20  17   1
DEMAND_SECTION
 1   0
 2  14
 3   4
 4   8
 5   2
 6  22
 7  10
 8  12
 9   7
10  12
11  23
12   4
13  21
14   9
15  24
16   7
17  13
18  22
19  10
20  11
DEPOT_SECTION
 1
-1
EOF