sets/C/cp-n20-k3.opt
Route #1: 14 1 15 7 6 2 18 4
Route #2: 13 11 17 9 5
Route #3: 10 3 16 19 8 12
cost 103
